# Solution for model GasLib-40
# Objective value = 1.4404610694709310e+01
loadshed[innode_1] 0
loadshed[innode_2] 0
loadshed[innode_3] 0
loadshed[innode_4] 0
loadshed[innode_5] 0
loadshed[innode_6] 0
loadshed[innode_7] 0
loadshed[innode_8] 0
loadshed[source_1] -2.1933841970353862e-01
loadshed[source_2] -4.8636667961555746e-02
loadshed[source_3] 3.5909144786872327e-01
loadshed[sink_1] 0
loadshed[sink_2] 0
loadshed[sink_3] 0
loadshed[sink_4] 0
loadshed[sink_5] 0
loadshed[sink_6] 0
loadshed[sink_7] 0
loadshed[sink_8] 0
loadshed[sink_9] 0
loadshed[sink_10] 0
loadshed[sink_11] 0
loadshed[sink_12] 8.8079148196948642e-01
loadshed[sink_13] 0
loadshed[sink_14] 0
loadshed[sink_15] 0
loadshed[sink_16] 0
loadshed[sink_17] 0
loadshed[sink_18] 0
loadshed[sink_19] 0
loadshed[sink_20] 0
loadshed[sink_21] 0
loadshed[sink_22] 0
loadshed[sink_23] 0
loadshed[sink_24] 0
loadshed[sink_25] 0
loadshed[sink_26] 0
loadshed[sink_27] 0
loadshed[sink_28] 0
loadshed[sink_29] 0
flow[source_1,sink_3] 192.765549476049
flow[innode_1,sink_16] 1.6354166666666970e+01
flow[innode_6,sink_13] 1.3157755630093172e+01
flow[sink_13,sink_14] -3.1964110365734957e+00
flow[sink_14,sink_10] -1.9550577703240151e+01
flow[sink_25,sink_26] 2.3090788930529106e+02
flow[sink_26,sink_9] 1.3870358635937995e+02
flow[sink_9,sink_18] 1.2234941969271328e+02
flow[sink_26,sink_4] 7.5850136279244452e+01
flow[sink_4,sink_20] 5.9495969612577710e+01
flow[sink_18,sink_6] 1.0599525302604661e+02
flow[sink_25,innode_8] -1.6005721614271263e+02
flow[sink_6,sink_7] 5.6932753026046157e+01
flow[sink_6,sink_22] 3.2708333333333641e+01
flow[sink_7,sink_24] 3.4657889305290695e+01
flow[sink_22,sink_1] 1.6354166666666970e+01
flow[sink_24,sink_21] 1.8303722638624023e+01
flow[sink_21,sink_12] 1.9495559719573574e+00
flow[sink_7,sink_5] 5.9206970540889756e+00
flow[sink_5,sink_17] -1.0433469612577596e+01
flow[sink_17,sink_4] 0
flow[sink_17,sink_8] -2.6787636279244314e+01
flow[sink_3,sink_23] 16.3541666666697
flow[sink_8,sink_20] -4.3141802945910982e+01
flow[sink_25,sink_20] 0
flow[sink_25,sink_15] -1.0036259545933777e+02
flow[sink_15,sink_29] -6.4807558107097208e+01
flow[sink_29,sink_28] 1.6354166666667879e+01
flow[sink_29,sink_2] 68.2633706855739
flow[sink_2,sink_15] 5.1909204018907232e+01
flow[sink_29,innode_7] -1.6577926212600568e+02
flow[innode_4,sink_19] 1.0132141103658691e+02
flow[sink_19,innode_3] 3.3482892303537845e+01
flow[innode_4,innode_5] 0
flow[sink_27,innode_5] 0
flow[sink_27,sink_19] -1.6354166666679703e+01
flow[sink_10,sink_11] 3.2708333333333641e+01
flow[sink_10,innode_2] -3.5130185399702690e+01
flow[sink_10,innode_3] -3.3482892303537845e+01
flow[innode_6,sink_25] -1.3157755630093172e+01
flow[sink_11,innode_1] 1.6354166666666970e+01
flow[sink_19,innode_2] 3.5130185399702690e+01
flow[source_3,innode_4] 1.0132141103658691e+02
flow[source_2,innode_7] 1.6577926212600568e+02
flow[sink_3,innode_8] 1.6005721614271263e+02
pressure[innode_1] 7.4899984772085631e+01
pressure[innode_2] 7.6908461470481114e+01
pressure[innode_3] 7.6834317397001172e+01
pressure[innode_4] 81.01325
pressure[innode_5] 7.6557331473337612e+01
pressure[innode_6] 7.4193787464290878e+01
pressure[innode_7] 81.01325
pressure[innode_8] 80.3689084072106
pressure[source_1] 81.01325
pressure[source_2] 81.01325
pressure[source_3] 81.01325
pressure[sink_1] 4.0270879673498676e+01
pressure[sink_2] 7.4850115958290488e+01
pressure[sink_3] 80.3689084072106
pressure[sink_4] 4.8287297789743157e+01
pressure[sink_5] 3.9128034687105945e+01
pressure[sink_6] 4.2371957283886047e+01
pressure[sink_7] 41.5904062919822
pressure[sink_8] 4.0916019867342158e+01
pressure[sink_9] 4.9629312797491629e+01
pressure[sink_10] 7.5051686079689176e+01
pressure[sink_11] 7.4899984772085631e+01
pressure[sink_12] 1.01325
pressure[sink_13] 74.1212509563674
pressure[sink_14] 7.4126971206191385e+01
pressure[sink_15] 7.4680643847773041e+01
pressure[sink_16] 7.3878334937267951e+01
pressure[sink_17] 3.9905252757958522e+01
pressure[sink_18] 4.5202346129023461e+01
pressure[sink_19] 7.6908461470481114e+01
pressure[sink_20] 43.9223968178041
pressure[sink_21] 1.7070087144363912e+00
pressure[sink_22] 4.1334648815853683e+01
pressure[sink_23] 8.0204190395550810e+01
pressure[sink_24] 1.9097054364726234e+00
pressure[sink_25] 7.4193787464290878e+01
pressure[sink_26] 5.7931080425202559e+01
pressure[sink_27] 7.6557331473337612e+01
pressure[sink_28] 7.6284021904025408e+01
pressure[sink_29] 7.6579304177642584e+01
interdiction[source_1,sink_3] 0
interdiction[innode_1,sink_16] 0
interdiction[innode_6,sink_13] 0
interdiction[sink_13,sink_14] 0
interdiction[sink_14,sink_10] 0
interdiction[sink_25,sink_26] 0
interdiction[sink_26,sink_9] 0
interdiction[sink_9,sink_18] 0
interdiction[sink_26,sink_4] 0
interdiction[sink_4,sink_20] 0
interdiction[sink_18,sink_6] 0
interdiction[sink_25,innode_8] 0
interdiction[sink_6,sink_7] 0
interdiction[sink_6,sink_22] 0
interdiction[sink_7,sink_24] 0
interdiction[sink_22,sink_1] 0
interdiction[sink_24,sink_21] 0
interdiction[sink_21,sink_12] 0
interdiction[sink_7,sink_5] 0
interdiction[sink_5,sink_17] 0
interdiction[sink_17,sink_4] 1
interdiction[sink_17,sink_8] 0
interdiction[sink_3,sink_23] 0
interdiction[sink_8,sink_20] 0
interdiction[sink_25,sink_20] 1
interdiction[sink_25,sink_15] 0
interdiction[sink_15,sink_29] 0
interdiction[sink_29,sink_28] 0
interdiction[sink_29,sink_2] 0
interdiction[sink_2,sink_15] 0
interdiction[sink_29,innode_7] 0
interdiction[innode_4,sink_19] 0
interdiction[sink_19,innode_3] 0
interdiction[innode_4,innode_5] 1
interdiction[sink_27,innode_5] 0
interdiction[sink_27,sink_19] 0
interdiction[sink_10,sink_11] 0
interdiction[sink_10,innode_2] 0
interdiction[sink_10,innode_3] 0
interdiction[innode_6,sink_25] 0
interdiction[sink_11,innode_1] 0
interdiction[sink_19,innode_2] 0
interdiction[source_3,innode_4] 0
interdiction[source_2,innode_7] 0
interdiction[sink_3,innode_8] 0
WCcheckFlow[source_1,sink_3] 39
WCcheckFlow[innode_1,sink_16] 1
WCcheckFlow[innode_6,sink_13] 13
WCcheckFlow[sink_13,sink_14] 12
WCcheckFlow[sink_14,sink_10] 11
WCcheckFlow[sink_25,sink_26] 15
WCcheckFlow[sink_26,sink_9] 12
WCcheckFlow[sink_9,sink_18] 11
WCcheckFlow[sink_26,sink_4] 2
WCcheckFlow[sink_4,sink_20] 1
WCcheckFlow[sink_18,sink_6] 10
WCcheckFlow[sink_25,innode_8] -36
WCcheckFlow[sink_6,sink_7] 7
WCcheckFlow[sink_6,sink_22] 2
WCcheckFlow[sink_7,sink_24] 3
WCcheckFlow[sink_22,sink_1] 1
WCcheckFlow[sink_24,sink_21] 2
WCcheckFlow[sink_21,sink_12] 1
WCcheckFlow[sink_7,sink_5] 3
WCcheckFlow[sink_5,sink_17] 2
WCcheckFlow[sink_17,sink_4] 0
WCcheckFlow[sink_17,sink_8] 1
WCcheckFlow[sink_3,sink_23] 1
WCcheckFlow[sink_8,sink_20] 0
WCcheckFlow[sink_25,sink_20] 0
WCcheckFlow[sink_25,sink_15] 6
WCcheckFlow[sink_15,sink_29] 5
WCcheckFlow[sink_29,sink_28] 1
WCcheckFlow[sink_29,sink_2] 1
WCcheckFlow[sink_2,sink_15] 0
WCcheckFlow[sink_29,innode_7] 2
WCcheckFlow[innode_4,sink_19] -2
WCcheckFlow[sink_19,innode_3] -5
WCcheckFlow[innode_4,innode_5] 0
WCcheckFlow[sink_27,innode_5] 1
WCcheckFlow[sink_27,sink_19] -2
WCcheckFlow[sink_10,sink_11] 3
WCcheckFlow[sink_10,innode_2] 1
WCcheckFlow[sink_10,innode_3] 6
WCcheckFlow[innode_6,sink_25] -14
WCcheckFlow[sink_11,innode_1] 2
WCcheckFlow[sink_19,innode_2] 0
WCcheckFlow[source_3,innode_4] -1
WCcheckFlow[source_2,innode_7] -1
WCcheckFlow[sink_3,innode_8] 37
